162 5
10 10 10 10 10 

0 0 0 0 0 0 1 2 
0 0 0 0 0 0 3 3 4 5 
6 1 0 0 0 0 2 8 7 
10 5 0 0 0 0 2 11 7 
10 9 0 0 0 0 1 6 
6 3 0 0 0 0 4 12 11 10 9 
3 8 0 0 0 0 3 12 10 9 
3 3 0 0 0 0 3 11 10 9 
10 3 0 0 0 0 1 13 
7 7 0 0 0 0 1 13 
9 7 0 0 0 0 1 13 
1 4 0 0 0 0 1 13 
0 0 0 0 0 0 1 14 
0 0 0 0 0 0 5 15 16 18 23 24 
2 0 0 0 1 0 3 22 20 19 
2 0 0 0 5 0 2 20 17 
3 0 0 0 4 0 1 21 
5 0 0 0 7 0 1 19 
8 0 0 0 5 0 1 25 
4 0 0 0 4 0 1 25 
10 0 0 0 7 0 1 25 
6 0 0 0 8 0 1 25 
1 0 0 0 4 0 1 25 
10 0 0 0 5 0 1 25 
0 0 0 0 0 0 1 26 
0 0 0 0 0 0 6 27 29 30 34 35 36 
6 0 0 1 0 0 2 31 28 
5 0 0 6 0 0 1 32 
3 0 0 7 0 0 1 33 
1 0 0 5 0 0 1 31 
6 0 0 2 0 0 1 37 
8 0 0 5 0 0 1 37 
5 0 0 4 0 0 1 37 
9 0 0 9 0 0 1 37 
7 0 0 6 0 0 1 37 
9 0 0 5 0 0 1 37 
0 0 0 0 0 0 5 38 60 82 94 116 
0 0 0 0 0 0 8 39 40 42 43 44 56 57 58 
2 1 0 0 0 1 3 51 48 41 
3 8 0 0 0 2 7 55 53 52 51 50 48 46 
8 5 0 0 0 8 4 52 50 49 45 
7 3 0 0 0 6 4 54 53 48 47 
8 4 0 0 0 6 4 50 49 48 47 
7 4 0 0 0 4 2 51 49 
3 6 0 0 0 3 1 46 
9 5 0 0 0 5 1 47 
3 6 0 0 0 7 1 59 
9 3 0 0 0 3 1 59 
6 4 0 0 0 3 1 59 
2 2 0 0 0 7 2 59 90 
7 5 0 0 0 10 1 59 
6 6 0 0 0 5 1 59 
4 2 0 0 0 3 1 59 
9 8 0 0 0 5 1 59 
9 9 0 0 0 8 1 59 
4 4 0 0 0 7 1 59 
1 8 0 0 0 4 1 59 
2 7 0 0 0 3 1 59 
0 0 0 0 0 0 1 162 
0 0 0 0 0 0 5 61 62 63 64 69 
2 0 1 0 1 0 3 72 68 65 
6 0 6 0 7 0 3 72 68 65 
2 0 2 0 6 0 6 80 75 72 70 68 67 
5 0 5 0 4 0 3 70 68 66 
7 0 6 0 5 0 4 80 75 70 67 
9 0 8 0 6 0 3 80 75 67 
5 0 8 0 8 0 4 78 74 73 71 
7 0 4 0 7 0 4 78 74 73 71 
7 0 4 0 4 0 4 80 75 72 70 
5 0 4 0 6 0 3 78 77 76 
4 0 5 0 5 0 2 79 76 
2 0 4 0 7 0 2 77 76 
5 0 7 0 3 0 1 77 
3 0 6 0 6 0 1 77 
1 0 6 0 2 0 2 76 143 
3 0 7 0 6 0 1 81 
6 0 4 0 2 0 1 81 
8 0 3 0 6 0 1 81 
6 0 5 0 7 0 1 81 
6 0 5 0 2 0 1 81 
0 0 0 0 0 0 1 162 
0 0 0 0 0 0 7 83 84 86 87 88 91 92 
2 0 1 0 0 0 3 90 85 123 
9 0 3 0 0 0 1 85 
5 0 2 0 0 0 1 89 
5 0 8 0 0 0 1 90 
7 0 6 0 0 0 1 89 
6 0 6 0 0 0 1 89 
3 0 3 0 0 0 1 93 
9 0 7 0 0 0 1 93 
8 0 6 0 0 0 1 93 
2 0 8 0 0 0 1 93 
0 0 0 0 0 0 2 138 150 
0 0 0 0 0 0 10 95 99 100 108 109 110 111 112 113 114 
9 0 0 0 1 1 4 107 106 105 96 
6 0 0 0 8 5 2 102 97 
5 0 0 0 5 5 1 98 
2 0 0 0 5 3 1 101 
6 0 0 0 6 7 1 104 
5 0 0 0 7 8 1 103 
10 0 0 0 5 4 1 115 
4 0 0 0 5 8 1 115 
3 0 0 0 4 3 1 115 
4 0 0 0 3 4 1 115 
10 0 0 0 8 10 1 115 
10 0 0 0 7 5 1 115 
3 0 0 0 1 4 1 115 
10 0 0 0 9 4 1 115 
1 0 0 0 9 4 1 115 
1 0 0 0 5 5 1 115 
1 0 0 0 2 1 1 115 
8 0 0 0 5 8 1 115 
10 0 0 0 3 7 1 115 
7 0 0 0 2 4 1 115 
0 0 0 0 0 0 1 162 
0 0 0 0 0 0 8 117 118 119 120 121 123 124 126 
7 1 0 0 1 0 3 129 127 125 
7 7 0 0 10 0 2 125 122 
2 9 0 0 4 0 1 122 
9 6 0 0 6 0 1 122 
10 5 0 0 9 0 1 122 
2 7 0 0 6 0 2 129 128 
6 5 0 0 5 0 2 129 128 
7 8 0 0 4 0 2 129 128 
3 5 0 0 4 0 2 134 128 
4 5 0 0 4 0 2 134 128 
4 5 0 0 4 0 3 136 134 130 
2 4 0 0 6 0 2 136 130 
2 4 0 0 6 0 2 133 131 
2 5 0 0 3 0 3 135 133 132 
10 5 0 0 7 0 2 134 132 
2 2 0 0 4 0 1 137 
10 3 0 0 5 0 1 137 
8 5 0 0 2 0 1 137 
3 4 0 0 5 0 1 137 
9 5 0 0 5 0 1 137 
0 0 0 0 0 0 1 162 
0 0 0 0 0 0 4 139 140 141 144 
3 2 0 0 0 0 3 147 146 142 
2 4 0 0 0 0 3 147 143 142 
2 6 0 0 0 0 2 148 145 
4 4 0 0 0 0 1 145 
2 4 0 0 0 0 1 145 
6 7 0 0 0 0 1 146 
9 10 0 0 0 0 1 149 
1 5 0 0 0 0 1 149 
2 5 0 0 0 0 1 149 
2 3 0 0 0 0 1 149 
0 0 0 0 0 0 1 162 
0 0 0 0 0 0 3 151 153 155 
1 0 0 0 0 1 4 160 158 154 152 
4 0 0 0 0 3 2 159 156 
7 0 0 0 0 5 2 158 157 
4 0 0 0 0 6 1 157 
5 0 0 0 0 4 1 156 
3 0 0 0 0 3 1 161 
3 0 0 0 0 8 1 161 
1 0 0 0 0 6 1 161 
5 0 0 0 0 6 1 161 
3 0 0 0 0 8 1 161 
0 0 0 0 0 0 1 162 
0 0 0 0 0 0 0 
